6736
121,52,93,35,96,89,30,84,7,8,124,97,143,100,5,107,95,82,103,98,1,87,34,76,73,48,63,10,113,3,62,149,22,125,21,150,115,44,71,45,4,104,128,68,119,91,106,13,136,74,123,31,27,129,144,49,147,145,112,64,72,80,14,122,77,131,32,23,38,116,101,39,57,41,117,140,60,66,17,130,148,11,61,36,69,127,118,24,12,53,40,139,47,120,42,9,28,6,37,2,19,99,114,102,70,108,86,29,81,110,25,20,51,109,43,67,134,138,54,92,46,90,56,83,141,58,55,50,135,137,132,65,85,142,18,75,26,146,126,33,105,111,16,133,15,78,59,79,88,94,121
